NAME: tsp30_15
COMMENT: 30-tsp problem (Padberg/Rinaldi)
TYPE: TSP
DIMENSION: 30
EDGE_WEIGHT_TYPE : EUC_2D
NODE_COORD_SECTION
1 11 25
2 1 34
3 17 15
4 26 25
5 19 4
6 13 36
7 7 20
8 31 0
9 10 35
10 2 23
11 3 16
12 27 11
13 8 23
14 12 34
15 36 7
16 4 3
17 38 34
18 8 21
19 30 34
20 17 1
21 27 23
22 25 3
23 27 11
24 25 30
25 38 38
26 3 1
27 24 7
28 23 10
29 32 26
30 32 18
